SiC-3C
1.0
        3.0759143829         0.0000000000         0.0000000000
        1.5379571915         2.6638199955         0.0000000000
        1.5379571915         0.8879399985         2.5114735769
   Si    C
    1    1
Direct
     0.000000000         0.000000000         0.000000000
     0.250000000         0.250000000         0.250000000
