Si_bulk_primitive
   1.00000000000000     
     0.0000000000000000    2.7154000000000000    2.7154000000000000
     2.7154000000000000    0.0000000000000000    2.7154000000000000
     2.7154000000000000    2.7154000000000000    0.0000000000000000
   Si
   2
Direct
  0.0000000000000000  0.0000000000000000  0.0000000000000000
  0.2500000000000000  0.2500000000000000  0.2500000000000000
