Cd4 Se4
1.0
        4.3416357040         0.0000000000         0.0000000000
        2.1708178520         3.7599668137         0.0000000000
        2.1708178520         1.2533222712         3.5449307080
   Cd   Se
    1   1
Direct
     0.000000000         0.000000000         0.000000000
     0.250000000         0.250000000         0.250000000
