C8
1.0
        2.5173001289         0.0000000000         0.0000000000
        1.2586500645         2.1800458606         0.0000000000
        1.2586500645         0.7266819535         2.0553669484
    C
    2
Direct
     0.250000000         0.250000000         0.250000000
     0.000000000         0.000000000         0.000000000
