C4-Graphene
1.0
        2.4672913551         0.0000000000         0.0000000000
       -1.2336456776         2.1367369921         0.0000000000
        0.0000000000         0.0000000000        15.8030700684
    C
    2
Direct
     0.000000000         0.000000000         0.000000000
     0.333333343         0.666666687         0.000000000
